000110100001000000000011000101011011101111010110010101110001010010110000001101010000000000101010001101101010010000000000101110101011010101001010000110001000000010100110001011110011000010010111100010010110001011100111010110001110010101000010001100011111011010110101110100000110111111100100111110100100001111110010000111000010110000011011010110101111011001010011100111011010000001011110111010110011111001100001001110011011100011000111000100011111001000110111111000111100011111000101110010100010001001001001110111010001010111101001100101001100101000101100101110101011001111101010010001001000100011111000111101111100001110111101101011011010000010100100110011001111111010000001011001101111110001001100000100011000001001000010001110000000100000110110111100001010001000000000000000001110011011010110010000010000001000000000111111001000100001001001101110110000001100010101011110111001011000000011000101011011101111010110010101110001010010110000001101010000000011001010